logs/drand/max/drand-07-075-2.lp
\ LP format - for model browsing. Use MPS format to capture full model detail.
Maximize
  x0,1_10 + x0,1_14 + x0,1_24 + x0,1_36 + x0,1_47 + x0,1_61 + x0,1_63
   + x0,2_10 + x0,2_14 + x0,2_24 + x0,2_36 + x0,2_47 + x0,2_61 + x0,2_63
   + x0,3_10 + x0,3_14 + x0,3_24 + x0,3_36 + x0,3_47 + x0,3_61 + x0,3_63
   + x0,4_10 + x0,4_14 + x0,4_24 + x0,4_36 + x0,4_47 + x0,4_61 + x0,4_63
   + x0,5_10 + x0,5_14 + x0,5_24 + x0,5_36 + x0,5_47 + x0,5_61 + x0,5_63
   + x1,2_10 + x1,2_14 + x1,2_24 + x1,2_36 + x1,2_47 + x1,2_61 + x1,2_63
   + x1,3_10 + x1,3_14 + x1,3_24 + x1,3_36 + x1,3_47 + x1,3_61 + x1,3_63
   + x1,4_10 + x1,4_14 + x1,4_24 + x1,4_36 + x1,4_47 + x1,4_61 + x1,4_63
   + x1,5_10 + x1,5_14 + x1,5_24 + x1,5_36 + x1,5_47 + x1,5_61 + x1,5_63
   + x2,3_10 + x2,3_14 + x2,3_24 + x2,3_36 + x2,3_47 + x2,3_61 + x2,3_63
   + x2,4_10 + x2,4_14 + x2,4_24 + x2,4_36 + x2,4_47 + x2,4_61 + x2,4_63
   + x2,5_10 + x2,5_14 + x2,5_24 + x2,5_36 + x2,5_47 + x2,5_61 + x2,5_63
   + x3,4_10 + x3,4_14 + x3,4_24 + x3,4_36 + x3,4_47 + x3,4_61 + x3,4_63
   + x3,5_10 + x3,5_14 + x3,5_24 + x3,5_36 + x3,5_47 + x3,5_61 + x3,5_63
   + x4,5_10 + x4,5_14 + x4,5_24 + x4,5_36 + x4,5_47 + x4,5_61 + x4,5_63
Subject To
 R0: x0,1_10 + x0,2_10 + x0,3_10 + x0,4_10 + x0,5_10 + x1,2_10 + x1,3_10
   + x1,4_10 + x1,5_10 + x2,3_10 + x2,4_10 + x2,5_10 + x3,4_10 + x3,5_10
   + x4,5_10 <= 1
 R1: x0,1_14 + x0,2_14 + x0,3_14 + x0,4_14 + x0,5_14 + x1,2_14 + x1,3_14
   + x1,4_14 + x1,5_14 + x2,3_14 + x2,4_14 + x2,5_14 + x3,4_14 + x3,5_14
   + x4,5_14 <= 1
 R2: x0,1_24 + x0,2_24 + x0,3_24 + x0,4_24 + x0,5_24 + x1,2_24 + x1,3_24
   + x1,4_24 + x1,5_24 + x2,3_24 + x2,4_24 + x2,5_24 + x3,4_24 + x3,5_24
   + x4,5_24 <= 1
 R3: x0,1_36 + x0,2_36 + x0,3_36 + x0,4_36 + x0,5_36 + x1,2_36 + x1,3_36
   + x1,4_36 + x1,5_36 + x2,3_36 + x2,4_36 + x2,5_36 + x3,4_36 + x3,5_36
   + x4,5_36 <= 1
 R4: x0,1_47 + x0,2_47 + x0,3_47 + x0,4_47 + x0,5_47 + x1,2_47 + x1,3_47
   + x1,4_47 + x1,5_47 + x2,3_47 + x2,4_47 + x2,5_47 + x3,4_47 + x3,5_47
   + x4,5_47 <= 1
 R5: x0,1_61 + x0,2_61 + x0,3_61 + x0,4_61 + x0,5_61 + x1,2_61 + x1,3_61
   + x1,4_61 + x1,5_61 + x2,3_61 + x2,4_61 + x2,5_61 + x3,4_61 + x3,5_61
   + x4,5_61 <= 1
 R6: x0,1_63 + x0,2_63 + x0,3_63 + x0,4_63 + x0,5_63 + x1,2_63 + x1,3_63
   + x1,4_63 + x1,5_63 + x2,3_63 + x2,4_63 + x2,5_63 + x3,4_63 + x3,5_63
   + x4,5_63 <= 1
 R7: x0,1_10 + x0,1_14 + x0,1_24 + x0,1_36 + x0,1_47 + x0,1_61 + x0,1_63
   <= 1
 R8: x0,2_10 + x0,2_14 + x0,2_24 + x0,2_36 + x0,2_47 + x0,2_61 + x0,2_63
   <= 1
 R9: x0,3_10 + x0,3_14 + x0,3_24 + x0,3_36 + x0,3_47 + x0,3_61 + x0,3_63
   <= 1
 R10: x0,4_10 + x0,4_14 + x0,4_24 + x0,4_36 + x0,4_47 + x0,4_61 + x0,4_63
   <= 1
 R11: x0,5_10 + x0,5_14 + x0,5_24 + x0,5_36 + x0,5_47 + x0,5_61 + x0,5_63
   <= 1
 R12: x1,2_10 + x1,2_14 + x1,2_24 + x1,2_36 + x1,2_47 + x1,2_61 + x1,2_63
   <= 1
 R13: x1,3_10 + x1,3_14 + x1,3_24 + x1,3_36 + x1,3_47 + x1,3_61 + x1,3_63
   <= 1
 R14: x1,4_10 + x1,4_14 + x1,4_24 + x1,4_36 + x1,4_47 + x1,4_61 + x1,4_63
   <= 1
 R15: x1,5_10 + x1,5_14 + x1,5_24 + x1,5_36 + x1,5_47 + x1,5_61 + x1,5_63
   <= 1
 R16: x2,3_10 + x2,3_14 + x2,3_24 + x2,3_36 + x2,3_47 + x2,3_61 + x2,3_63
   <= 1
 R17: x2,4_10 + x2,4_14 + x2,4_24 + x2,4_36 + x2,4_47 + x2,4_61 + x2,4_63
   <= 1
 R18: x2,5_10 + x2,5_14 + x2,5_24 + x2,5_36 + x2,5_47 + x2,5_61 + x2,5_63
   <= 1
 R19: x3,4_10 + x3,4_14 + x3,4_24 + x3,4_36 + x3,4_47 + x3,4_61 + x3,4_63
   <= 1
 R20: x3,5_10 + x3,5_14 + x3,5_24 + x3,5_36 + x3,5_47 + x3,5_61 + x3,5_63
   <= 1
 R21: x4,5_10 + x4,5_14 + x4,5_24 + x4,5_36 + x4,5_47 + x4,5_61 + x4,5_63
   <= 1
 R22: p0 - p1 <= -1
 R23: - 10 x0,1_10 - p0 + p1 >= 0
 R24: 255 x0,1_10 - p0 + p1 <= 265
 R25: - 14 x0,1_14 - p0 + p1 >= 0
 R26: 255 x0,1_14 - p0 + p1 <= 269
 R27: - 24 x0,1_24 - p0 + p1 >= 0
 R28: 255 x0,1_24 - p0 + p1 <= 279
 R29: - 36 x0,1_36 - p0 + p1 >= 0
 R30: 255 x0,1_36 - p0 + p1 <= 291
 R31: - 47 x0,1_47 - p0 + p1 >= 0
 R32: 255 x0,1_47 - p0 + p1 <= 302
 R33: - 61 x0,1_61 - p0 + p1 >= 0
 R34: 255 x0,1_61 - p0 + p1 <= 316
 R35: - 63 x0,1_63 - p0 + p1 >= 0
 R36: 255 x0,1_63 - p0 + p1 <= 318
 R37: p0 - p2 <= -1
 R38: - 10 x0,2_10 - p0 + p2 >= 0
 R39: 255 x0,2_10 - p0 + p2 <= 265
 R40: - 14 x0,2_14 - p0 + p2 >= 0
 R41: 255 x0,2_14 - p0 + p2 <= 269
 R42: - 24 x0,2_24 - p0 + p2 >= 0
 R43: 255 x0,2_24 - p0 + p2 <= 279
 R44: - 36 x0,2_36 - p0 + p2 >= 0
 R45: 255 x0,2_36 - p0 + p2 <= 291
 R46: - 47 x0,2_47 - p0 + p2 >= 0
 R47: 255 x0,2_47 - p0 + p2 <= 302
 R48: - 61 x0,2_61 - p0 + p2 >= 0
 R49: 255 x0,2_61 - p0 + p2 <= 316
 R50: - 63 x0,2_63 - p0 + p2 >= 0
 R51: 255 x0,2_63 - p0 + p2 <= 318
 R52: p0 - p3 <= -1
 R53: - 10 x0,3_10 - p0 + p3 >= 0
 R54: 255 x0,3_10 - p0 + p3 <= 265
 R55: - 14 x0,3_14 - p0 + p3 >= 0
 R56: 255 x0,3_14 - p0 + p3 <= 269
 R57: - 24 x0,3_24 - p0 + p3 >= 0
 R58: 255 x0,3_24 - p0 + p3 <= 279
 R59: - 36 x0,3_36 - p0 + p3 >= 0
 R60: 255 x0,3_36 - p0 + p3 <= 291
 R61: - 47 x0,3_47 - p0 + p3 >= 0
 R62: 255 x0,3_47 - p0 + p3 <= 302
 R63: - 61 x0,3_61 - p0 + p3 >= 0
 R64: 255 x0,3_61 - p0 + p3 <= 316
 R65: - 63 x0,3_63 - p0 + p3 >= 0
 R66: 255 x0,3_63 - p0 + p3 <= 318
 R67: p0 - p4 <= -1
 R68: - 10 x0,4_10 - p0 + p4 >= 0
 R69: 255 x0,4_10 - p0 + p4 <= 265
 R70: - 14 x0,4_14 - p0 + p4 >= 0
 R71: 255 x0,4_14 - p0 + p4 <= 269
 R72: - 24 x0,4_24 - p0 + p4 >= 0
 R73: 255 x0,4_24 - p0 + p4 <= 279
 R74: - 36 x0,4_36 - p0 + p4 >= 0
 R75: 255 x0,4_36 - p0 + p4 <= 291
 R76: - 47 x0,4_47 - p0 + p4 >= 0
 R77: 255 x0,4_47 - p0 + p4 <= 302
 R78: - 61 x0,4_61 - p0 + p4 >= 0
 R79: 255 x0,4_61 - p0 + p4 <= 316
 R80: - 63 x0,4_63 - p0 + p4 >= 0
 R81: 255 x0,4_63 - p0 + p4 <= 318
 R82: p0 - p5 <= -1
 R83: - 10 x0,5_10 - p0 + p5 >= 0
 R84: 255 x0,5_10 - p0 + p5 <= 265
 R85: - 14 x0,5_14 - p0 + p5 >= 0
 R86: 255 x0,5_14 - p0 + p5 <= 269
 R87: - 24 x0,5_24 - p0 + p5 >= 0
 R88: 255 x0,5_24 - p0 + p5 <= 279
 R89: - 36 x0,5_36 - p0 + p5 >= 0
 R90: 255 x0,5_36 - p0 + p5 <= 291
 R91: - 47 x0,5_47 - p0 + p5 >= 0
 R92: 255 x0,5_47 - p0 + p5 <= 302
 R93: - 61 x0,5_61 - p0 + p5 >= 0
 R94: 255 x0,5_61 - p0 + p5 <= 316
 R95: - 63 x0,5_63 - p0 + p5 >= 0
 R96: 255 x0,5_63 - p0 + p5 <= 318
 R97: p1 - p2 <= -1
 R98: - 10 x1,2_10 - p1 + p2 >= 0
 R99: 255 x1,2_10 - p1 + p2 <= 265
 R100: - 14 x1,2_14 - p1 + p2 >= 0
 R101: 255 x1,2_14 - p1 + p2 <= 269
 R102: - 24 x1,2_24 - p1 + p2 >= 0
 R103: 255 x1,2_24 - p1 + p2 <= 279
 R104: - 36 x1,2_36 - p1 + p2 >= 0
 R105: 255 x1,2_36 - p1 + p2 <= 291
 R106: - 47 x1,2_47 - p1 + p2 >= 0
 R107: 255 x1,2_47 - p1 + p2 <= 302
 R108: - 61 x1,2_61 - p1 + p2 >= 0
 R109: 255 x1,2_61 - p1 + p2 <= 316
 R110: - 63 x1,2_63 - p1 + p2 >= 0
 R111: 255 x1,2_63 - p1 + p2 <= 318
 R112: p1 - p3 <= -1
 R113: - 10 x1,3_10 - p1 + p3 >= 0
 R114: 255 x1,3_10 - p1 + p3 <= 265
 R115: - 14 x1,3_14 - p1 + p3 >= 0
 R116: 255 x1,3_14 - p1 + p3 <= 269
 R117: - 24 x1,3_24 - p1 + p3 >= 0
 R118: 255 x1,3_24 - p1 + p3 <= 279
 R119: - 36 x1,3_36 - p1 + p3 >= 0
 R120: 255 x1,3_36 - p1 + p3 <= 291
 R121: - 47 x1,3_47 - p1 + p3 >= 0
 R122: 255 x1,3_47 - p1 + p3 <= 302
 R123: - 61 x1,3_61 - p1 + p3 >= 0
 R124: 255 x1,3_61 - p1 + p3 <= 316
 R125: - 63 x1,3_63 - p1 + p3 >= 0
 R126: 255 x1,3_63 - p1 + p3 <= 318
 R127: p1 - p4 <= -1
 R128: - 10 x1,4_10 - p1 + p4 >= 0
 R129: 255 x1,4_10 - p1 + p4 <= 265
 R130: - 14 x1,4_14 - p1 + p4 >= 0
 R131: 255 x1,4_14 - p1 + p4 <= 269
 R132: - 24 x1,4_24 - p1 + p4 >= 0
 R133: 255 x1,4_24 - p1 + p4 <= 279
 R134: - 36 x1,4_36 - p1 + p4 >= 0
 R135: 255 x1,4_36 - p1 + p4 <= 291
 R136: - 47 x1,4_47 - p1 + p4 >= 0
 R137: 255 x1,4_47 - p1 + p4 <= 302
 R138: - 61 x1,4_61 - p1 + p4 >= 0
 R139: 255 x1,4_61 - p1 + p4 <= 316
 R140: - 63 x1,4_63 - p1 + p4 >= 0
 R141: 255 x1,4_63 - p1 + p4 <= 318
 R142: p1 - p5 <= -1
 R143: - 10 x1,5_10 - p1 + p5 >= 0
 R144: 255 x1,5_10 - p1 + p5 <= 265
 R145: - 14 x1,5_14 - p1 + p5 >= 0
 R146: 255 x1,5_14 - p1 + p5 <= 269
 R147: - 24 x1,5_24 - p1 + p5 >= 0
 R148: 255 x1,5_24 - p1 + p5 <= 279
 R149: - 36 x1,5_36 - p1 + p5 >= 0
 R150: 255 x1,5_36 - p1 + p5 <= 291
 R151: - 47 x1,5_47 - p1 + p5 >= 0
 R152: 255 x1,5_47 - p1 + p5 <= 302
 R153: - 61 x1,5_61 - p1 + p5 >= 0
 R154: 255 x1,5_61 - p1 + p5 <= 316
 R155: - 63 x1,5_63 - p1 + p5 >= 0
 R156: 255 x1,5_63 - p1 + p5 <= 318
 R157: p2 - p3 <= -1
 R158: - 10 x2,3_10 - p2 + p3 >= 0
 R159: 255 x2,3_10 - p2 + p3 <= 265
 R160: - 14 x2,3_14 - p2 + p3 >= 0
 R161: 255 x2,3_14 - p2 + p3 <= 269
 R162: - 24 x2,3_24 - p2 + p3 >= 0
 R163: 255 x2,3_24 - p2 + p3 <= 279
 R164: - 36 x2,3_36 - p2 + p3 >= 0
 R165: 255 x2,3_36 - p2 + p3 <= 291
 R166: - 47 x2,3_47 - p2 + p3 >= 0
 R167: 255 x2,3_47 - p2 + p3 <= 302
 R168: - 61 x2,3_61 - p2 + p3 >= 0
 R169: 255 x2,3_61 - p2 + p3 <= 316
 R170: - 63 x2,3_63 - p2 + p3 >= 0
 R171: 255 x2,3_63 - p2 + p3 <= 318
 R172: p2 - p4 <= -1
 R173: - 10 x2,4_10 - p2 + p4 >= 0
 R174: 255 x2,4_10 - p2 + p4 <= 265
 R175: - 14 x2,4_14 - p2 + p4 >= 0
 R176: 255 x2,4_14 - p2 + p4 <= 269
 R177: - 24 x2,4_24 - p2 + p4 >= 0
 R178: 255 x2,4_24 - p2 + p4 <= 279
 R179: - 36 x2,4_36 - p2 + p4 >= 0
 R180: 255 x2,4_36 - p2 + p4 <= 291
 R181: - 47 x2,4_47 - p2 + p4 >= 0
 R182: 255 x2,4_47 - p2 + p4 <= 302
 R183: - 61 x2,4_61 - p2 + p4 >= 0
 R184: 255 x2,4_61 - p2 + p4 <= 316
 R185: - 63 x2,4_63 - p2 + p4 >= 0
 R186: 255 x2,4_63 - p2 + p4 <= 318
 R187: p2 - p5 <= -1
 R188: - 10 x2,5_10 - p2 + p5 >= 0
 R189: 255 x2,5_10 - p2 + p5 <= 265
 R190: - 14 x2,5_14 - p2 + p5 >= 0
 R191: 255 x2,5_14 - p2 + p5 <= 269
 R192: - 24 x2,5_24 - p2 + p5 >= 0
 R193: 255 x2,5_24 - p2 + p5 <= 279
 R194: - 36 x2,5_36 - p2 + p5 >= 0
 R195: 255 x2,5_36 - p2 + p5 <= 291
 R196: - 47 x2,5_47 - p2 + p5 >= 0
 R197: 255 x2,5_47 - p2 + p5 <= 302
 R198: - 61 x2,5_61 - p2 + p5 >= 0
 R199: 255 x2,5_61 - p2 + p5 <= 316
 R200: - 63 x2,5_63 - p2 + p5 >= 0
 R201: 255 x2,5_63 - p2 + p5 <= 318
 R202: p3 - p4 <= -1
 R203: - 10 x3,4_10 - p3 + p4 >= 0
 R204: 255 x3,4_10 - p3 + p4 <= 265
 R205: - 14 x3,4_14 - p3 + p4 >= 0
 R206: 255 x3,4_14 - p3 + p4 <= 269
 R207: - 24 x3,4_24 - p3 + p4 >= 0
 R208: 255 x3,4_24 - p3 + p4 <= 279
 R209: - 36 x3,4_36 - p3 + p4 >= 0
 R210: 255 x3,4_36 - p3 + p4 <= 291
 R211: - 47 x3,4_47 - p3 + p4 >= 0
 R212: 255 x3,4_47 - p3 + p4 <= 302
 R213: - 61 x3,4_61 - p3 + p4 >= 0
 R214: 255 x3,4_61 - p3 + p4 <= 316
 R215: - 63 x3,4_63 - p3 + p4 >= 0
 R216: 255 x3,4_63 - p3 + p4 <= 318
 R217: p3 - p5 <= -1
 R218: - 10 x3,5_10 - p3 + p5 >= 0
 R219: 255 x3,5_10 - p3 + p5 <= 265
 R220: - 14 x3,5_14 - p3 + p5 >= 0
 R221: 255 x3,5_14 - p3 + p5 <= 269
 R222: - 24 x3,5_24 - p3 + p5 >= 0
 R223: 255 x3,5_24 - p3 + p5 <= 279
 R224: - 36 x3,5_36 - p3 + p5 >= 0
 R225: 255 x3,5_36 - p3 + p5 <= 291
 R226: - 47 x3,5_47 - p3 + p5 >= 0
 R227: 255 x3,5_47 - p3 + p5 <= 302
 R228: - 61 x3,5_61 - p3 + p5 >= 0
 R229: 255 x3,5_61 - p3 + p5 <= 316
 R230: - 63 x3,5_63 - p3 + p5 >= 0
 R231: 255 x3,5_63 - p3 + p5 <= 318
 R232: p4 - p5 <= -1
 R233: - 10 x4,5_10 - p4 + p5 >= 0
 R234: 255 x4,5_10 - p4 + p5 <= 265
 R235: - 14 x4,5_14 - p4 + p5 >= 0
 R236: 255 x4,5_14 - p4 + p5 <= 269
 R237: - 24 x4,5_24 - p4 + p5 >= 0
 R238: 255 x4,5_24 - p4 + p5 <= 279
 R239: - 36 x4,5_36 - p4 + p5 >= 0
 R240: 255 x4,5_36 - p4 + p5 <= 291
 R241: - 47 x4,5_47 - p4 + p5 >= 0
 R242: 255 x4,5_47 - p4 + p5 <= 302
 R243: - 61 x4,5_61 - p4 + p5 >= 0
 R244: 255 x4,5_61 - p4 + p5 <= 316
 R245: - 63 x4,5_63 - p4 + p5 >= 0
 R246: 255 x4,5_63 - p4 + p5 <= 318
Bounds
Binaries
 x0,1_10 x0,1_14 x0,1_24 x0,1_36 x0,1_47 x0,1_61 x0,1_63 x0,2_10 x0,2_14
 x0,2_24 x0,2_36 x0,2_47 x0,2_61 x0,2_63 x0,3_10 x0,3_14 x0,3_24 x0,3_36
 x0,3_47 x0,3_61 x0,3_63 x0,4_10 x0,4_14 x0,4_24 x0,4_36 x0,4_47 x0,4_61
 x0,4_63 x0,5_10 x0,5_14 x0,5_24 x0,5_36 x0,5_47 x0,5_61 x0,5_63 x1,2_10
 x1,2_14 x1,2_24 x1,2_36 x1,2_47 x1,2_61 x1,2_63 x1,3_10 x1,3_14 x1,3_24
 x1,3_36 x1,3_47 x1,3_61 x1,3_63 x1,4_10 x1,4_14 x1,4_24 x1,4_36 x1,4_47
 x1,4_61 x1,4_63 x1,5_10 x1,5_14 x1,5_24 x1,5_36 x1,5_47 x1,5_61 x1,5_63
 x2,3_10 x2,3_14 x2,3_24 x2,3_36 x2,3_47 x2,3_61 x2,3_63 x2,4_10 x2,4_14
 x2,4_24 x2,4_36 x2,4_47 x2,4_61 x2,4_63 x2,5_10 x2,5_14 x2,5_24 x2,5_36
 x2,5_47 x2,5_61 x2,5_63 x3,4_10 x3,4_14 x3,4_24 x3,4_36 x3,4_47 x3,4_61
 x3,4_63 x3,5_10 x3,5_14 x3,5_24 x3,5_36 x3,5_47 x3,5_61 x3,5_63 x4,5_10
 x4,5_14 x4,5_24 x4,5_36 x4,5_47 x4,5_61 x4,5_63
Generals
 p0 p1 p2 p3 p4 p5
End
