logs/drand/max/drand-07-075-2.sol
# Objective value = 7
x0,1_10 0
x0,1_14 0
x0,1_24 0
x0,1_36 0
x0,1_47 0
x0,1_61 0
x0,1_63 0
x0,2_10 0
x0,2_14 0
x0,2_24 0
x0,2_36 0
x0,2_47 0
x0,2_61 0
x0,2_63 0
x0,3_10 0
x0,3_14 0
x0,3_24 0
x0,3_36 0
x0,3_47 1
x0,3_61 0
x0,3_63 0
x0,4_10 0
x0,4_14 0
x0,4_24 0
x0,4_36 0
x0,4_47 0
x0,4_61 1
x0,4_63 0
x0,5_10 0
x0,5_14 0
x0,5_24 0
x0,5_36 0
x0,5_47 0
x0,5_61 0
x0,5_63 0
x1,2_10 0
x1,2_14 0
x1,2_24 0
x1,2_36 0
x1,2_47 0
x1,2_61 0
x1,2_63 0
x1,3_10 0
x1,3_14 0
x1,3_24 0
x1,3_36 0
x1,3_47 0
x1,3_61 0
x1,3_63 0
x1,4_10 0
x1,4_14 0
x1,4_24 0
x1,4_36 0
x1,4_47 0
x1,4_61 0
x1,4_63 0
x1,5_10 0
x1,5_14 0
x1,5_24 0
x1,5_36 0
x1,5_47 0
x1,5_61 0
x1,5_63 1
x2,3_10 0
x2,3_14 0
x2,3_24 0
x2,3_36 1
x2,3_47 0
x2,3_61 0
x2,3_63 0
x2,4_10 0
x2,4_14 0
x2,4_24 0
x2,4_36 0
x2,4_47 0
x2,4_61 0
x2,4_63 0
x2,5_10 0
x2,5_14 0
x2,5_24 0
x2,5_36 0
x2,5_47 0
x2,5_61 0
x2,5_63 0
x3,4_10 0
x3,4_14 1
x3,4_24 0
x3,4_36 0
x3,4_47 0
x3,4_61 0
x3,4_63 0
x3,5_10 0
x3,5_14 0
x3,5_24 1
x3,5_36 0
x3,5_47 0
x3,5_61 0
x3,5_63 0
x4,5_10 1
x4,5_14 0
x4,5_24 0
x4,5_36 0
x4,5_47 0
x4,5_61 0
x4,5_63 0
p0 2
p1 10
p2 13
p3 49
p4 63
p5 73
